(declare-fun e () String)
(declare-fun g () String)
(declare-fun b () String)
(declare-fun d () String)
(declare-fun f () String)
(declare-fun a () String)
(declare-fun h () String)
(assert (= d (str.++ a a "ah" f e)))
(assert (= (str.++ h "abb") (str.++ "bc" f "f" b)))
(assert (= (str.++ h "f" g) "g"))

(check-sat)
